+ '[' -z 2514 ']'
+ f=constraints_22_11.simp-noncanon.simp
+ c=22-cubes/30.cubes
+ i=2514
+ s=70
+ adj=22-cubes/30.cubes2514.adj
+ cnf=22-cubes/30.cubes2514.cnf
+ ext=22-cubes/30.cubes2514.ext
+ cnfext=22-cubes/30.cubes2514.cnfext
+ unitlines=0
++ sed '2515q;d' 22-cubes/30.cubes
+ for b in '$(sed "$((i+1))q;d" "$c")'
+ [[ a != \a ]]
+ for b in '$(sed "$((i+1))q;d" "$c")'
+ [[ -92 != \a ]]
+ [[ -92 != \0 ]]
+ unitlines=1
+ for b in '$(sed "$((i+1))q;d" "$c")'
+ [[ -137 != \a ]]
+ [[ -137 != \0 ]]
+ unitlines=2
+ for b in '$(sed "$((i+1))q;d" "$c")'
+ [[ 122 != \a ]]
+ [[ 122 != \0 ]]
+ unitlines=3
+ for b in '$(sed "$((i+1))q;d" "$c")'
+ [[ -80 != \a ]]
+ [[ -80 != \0 ]]
+ unitlines=4
+ for b in '$(sed "$((i+1))q;d" "$c")'
+ [[ 58 != \a ]]
+ [[ 58 != \0 ]]
+ unitlines=5
+ for b in '$(sed "$((i+1))q;d" "$c")'
+ [[ 107 != \a ]]
+ [[ 107 != \0 ]]
+ unitlines=6
+ for b in '$(sed "$((i+1))q;d" "$c")'
+ [[ -207 != \a ]]
+ [[ -207 != \0 ]]
+ unitlines=7
+ for b in '$(sed "$((i+1))q;d" "$c")'
+ [[ -93 != \a ]]
+ [[ -93 != \0 ]]
+ unitlines=8
+ for b in '$(sed "$((i+1))q;d" "$c")'
+ [[ 32 != \a ]]
+ [[ 32 != \0 ]]
+ unitlines=9
+ for b in '$(sed "$((i+1))q;d" "$c")'
+ [[ 0 != \a ]]
+ [[ 0 != \0 ]]
++ cut '-d ' -f3
++ head -n 1 constraints_22_11.simp-noncanon.simp
+ numvars=6160
++ cut '-d ' -f4
++ head -n 1 constraints_22_11.simp-noncanon.simp
+ numlines=1786659
+ newlines=1786668
+ echo 'p cnf 6160 1786668'
+ tail constraints_22_11.simp-noncanon.simp -n +2
++ sed '2515q;d' 22-cubes/30.cubes
+ for b in '$(sed "$((i+1))q;d" "$c")'
+ [[ a != \a ]]
+ for b in '$(sed "$((i+1))q;d" "$c")'
+ [[ -92 != \a ]]
+ [[ -92 != \0 ]]
+ echo '-92 0'
+ for b in '$(sed "$((i+1))q;d" "$c")'
+ [[ -137 != \a ]]
+ [[ -137 != \0 ]]
+ echo '-137 0'
+ for b in '$(sed "$((i+1))q;d" "$c")'
+ [[ 122 != \a ]]
+ [[ 122 != \0 ]]
+ echo '122 0'
+ for b in '$(sed "$((i+1))q;d" "$c")'
+ [[ -80 != \a ]]
+ [[ -80 != \0 ]]
+ echo '-80 0'
+ for b in '$(sed "$((i+1))q;d" "$c")'
+ [[ 58 != \a ]]
+ [[ 58 != \0 ]]
+ echo '58 0'
+ for b in '$(sed "$((i+1))q;d" "$c")'
+ [[ 107 != \a ]]
+ [[ 107 != \0 ]]
+ echo '107 0'
+ for b in '$(sed "$((i+1))q;d" "$c")'
+ [[ -207 != \a ]]
+ [[ -207 != \0 ]]
+ echo '-207 0'
+ for b in '$(sed "$((i+1))q;d" "$c")'
+ [[ -93 != \a ]]
+ [[ -93 != \0 ]]
+ echo '-93 0'
+ for b in '$(sed "$((i+1))q;d" "$c")'
+ [[ 32 != \a ]]
+ [[ 32 != \0 ]]
+ echo '32 0'
+ for b in '$(sed "$((i+1))q;d" "$c")'
+ [[ 0 != \a ]]
+ [[ 0 != \0 ]]
+ ./simplify-by-var-removal.sh 22-cubes/30.cubes2514.adj 70
+ '[' -z 70 ']'
+ f=22-cubes/30.cubes2514.adj
+ p=70
++ echo 22-cubes
+ sub_dir=22-cubes
+ mkdir -p log/22-cubes
+ mkdir -p simp/22-cubes
+ tee log/22-cubes/30.cubes2514.adj.simp1
+ ./cadical/build/cadical 22-cubes/30.cubes2514.adj -o simp/22-cubes/30.cubes2514.adj.simp1 -e simp/22-cubes/30.cubes2514.adj.ext1 -n -c 200000
c --- [ banner ] -------------------------------------------------------------
c 
c CaDiCaL Radically Simplified CDCL SAT Solver
c Copyright (c) 2016-2021 A. Biere, M. Fleury, N. Froleyks
c 
c Version 1.5.2
c g++ (GCC) 9.3.0 -Wall -Wextra -O3 -DNDEBUG
c Tue Feb 8 21:15:15 EST 2022 Linux gra-login1 3.10.0-1160.36.2.el7.x86_64 x86_64
c 
c --- [ limit ] --------------------------------------------------------------
c 
c setting conflict limit to 200000 conflicts (due to '200000')
c 
c --- [ parsing input ] ------------------------------------------------------
c 
c reading DIMACS file from '22-cubes/30.cubes2514.adj'
c opening file to read '22-cubes/30.cubes2514.adj'
c found 'p cnf 6160 1786668' header
c parsed 1786668 clauses in 18.45 seconds process time
c closing file '22-cubes/30.cubes2514.adj'
c after reading 1542541670 bytes 1471.1 MB
c 
c --- [ options ] ------------------------------------------------------------
c 
c all options are set to their default value
c 
c --- [ solving ] ------------------------------------------------------------
c 
c time measured in process time since initialization
c 
c  seconds    reductions  redundant   irredundant
c          MB     restarts       trail       variables
c            level   conflicts       glue         remaining
c 
c * 18.46 1453  0 0   0    0    0  0% 0 1785954 5125 83%
c { 19.30 1495  0 0   0    0    0  0% 0 1785954 5125 83%
c i 19.50 1497 27 0   0    3    2 28% 5 1785954 5108 83%
c i 20.64 1547 181 0   0   21   12 46% 9 1785954 5107 83%
c i 20.69 1548 180 0   0   36   21 46% 8 1785954 5106 83%
c i 21.36 1567 141 0   2   67   43 45% 10 1785954 5085 83%
c i 21.40 1567 138 0   2   68   43 45% 10 1785954 5066 82%
c i 22.03 1570 118 0   2   79   51 43% 9 1785954 5049 82%
c i 22.17 1571 112 0   2   92   56 42% 8 1785954 5048 82%
c i 22.32 1573 89 0   2  113   66 39% 7 1785954 5029 82%
c i 22.39 1573 46 0   2  213   77 32% 5 1785954 5025 82%
c i 22.39 1573 43 0   2  226   85 31% 5 1785954 5005 81%
c } 22.40 1573 43 0   2  229   86 31% 5 1785954 4935 80%
c 0 22.40 1573 43 0   2  229   86 31% 5 1785954 4935 80%
c 
c --- [ writing output ] -----------------------------------------------------
c 
c writing simplified CNF to DIMACS file 'simp/22-cubes/30.cubes2514.adj.simp1'
c * 22.40 1573 43 0   2  229   86 31% 5 1785954 4935 80%
c opening file to write 'simp/22-cubes/30.cubes2514.adj.simp1'
c writing 'p cnf 6160 1' header
c closing file 'simp/22-cubes/30.cubes2514.adj.simp1'
c after writing 15 bytes 0.0 MB
c wrote 1 clauses in 0.00 seconds process time
c 
c --- [ writing extension ] --------------------------------------------------
c 
c writing extension stack to 'simp/22-cubes/30.cubes2514.adj.ext1'
c opening file to write 'simp/22-cubes/30.cubes2514.adj.ext1'
c closing file 'simp/22-cubes/30.cubes2514.adj.ext1'
c after writing 0 bytes 0.0 MB
c wrote 0 witnesses in 0.00 seconds process time
c 
c --- [ result ] -------------------------------------------------------------
c 
s UNSATISFIABLE
c 
c --- [ run-time profiling ] -------------------------------------------------
c 
c process time taken by individual solving procedures
c (percentage relative to process time for solving)
c 
c        18.45  468.45% parse
c         3.94   99.99% search
c         3.09   78.46% unstable
c         0.85   21.53% lucky
c         0.00    0.00% simplify
c   =================================
c         3.94   17.59% solve
c 
c last line shows process time for solving
c (percentage relative to total process time)
c 
c --- [ statistics ] ---------------------------------------------------------
c 
c chronological:                50        21.83 %  of conflicts
c conflicts:                   229        58.13    per second
c decisions:                   764       193.94    per second
c fixed:                      1225        19.89 %  of all variables
c learned:                     213        93.01 %  per conflict
c learned_lits:               4270       100.00 %  learned literals
c minimized:                     0         0.00 %  learned literals
c shrunken:                   2368        55.46 %  learned literals
c minishrunken:                259         6.07 %  learned literals
c propagations:              31853         0.01 M  per second
c restarts:                      2       114.50    interval
c subsumed:                    116         0.00 %  of all clauses
c 
c seconds are measured in process time for solving
c 
c --- [ resources ] ----------------------------------------------------------
c 
c total process time since initialization:        22.40    seconds
c total real time since initialization:           22.48    seconds
c maximum resident set size of process:         1572.92    MB
c 
c --- [ shutting down ] ------------------------------------------------------
c 
c exit 20
++ seq 1 100
+ for i in '$(seq 1 100)'
++ sed 's/.$//'
++ rev
++ cut '-d ' -f1
++ rev
++ tail -n 1
++ grep 'c [*]' log/22-cubes/30.cubes2514.adj.simp1
+ vars_remaining=80
+ ((  vars_remaining < 100 - p  ))
+ tee log/22-cubes/30.cubes2514.adj.simp2
+ ./cadical/build/cadical simp/22-cubes/30.cubes2514.adj.simp1 -o simp/22-cubes/30.cubes2514.adj.simp2 -e simp/22-cubes/30.cubes2514.adj.ext2 -n -c 200000
c --- [ banner ] -------------------------------------------------------------
c 
c CaDiCaL Radically Simplified CDCL SAT Solver
c Copyright (c) 2016-2021 A. Biere, M. Fleury, N. Froleyks
c 
c Version 1.5.2
c g++ (GCC) 9.3.0 -Wall -Wextra -O3 -DNDEBUG
c Tue Feb 8 21:15:15 EST 2022 Linux gra-login1 3.10.0-1160.36.2.el7.x86_64 x86_64
c 
c --- [ limit ] --------------------------------------------------------------
c 
c setting conflict limit to 200000 conflicts (due to '200000')
c 
c --- [ parsing input ] ------------------------------------------------------
c 
c reading DIMACS file from 'simp/22-cubes/30.cubes2514.adj.simp1'
c opening file to read 'simp/22-cubes/30.cubes2514.adj.simp1'
c found 'p cnf 6160 1' header
c parsed 1 clauses in 0.00 seconds process time
c closing file 'simp/22-cubes/30.cubes2514.adj.simp1'
c after reading 15 bytes 0.0 MB
c 
c --- [ options ] ------------------------------------------------------------
c 
c all options are set to their default value
c 
c --- [ solving ] ------------------------------------------------------------
c 
c time measured in process time since initialization
c 
c  seconds  reductions  redundant irredundant
c         MB    restarts       trail    variables
c          level   conflicts       glue     remaining
c 
c 0  0.00  3  0 0   0    0    0  0% 0    0   0  0%
c 
c --- [ writing output ] -----------------------------------------------------
c 
c writing simplified CNF to DIMACS file 'simp/22-cubes/30.cubes2514.adj.simp2'
c *  0.00  3  0 0   0    0    0  0% 0    0   0  0%
c opening file to write 'simp/22-cubes/30.cubes2514.adj.simp2'
c writing 'p cnf 6160 1' header
c closing file 'simp/22-cubes/30.cubes2514.adj.simp2'
c after writing 15 bytes 0.0 MB
c wrote 1 clauses in 0.00 seconds process time
c 
c --- [ writing extension ] --------------------------------------------------
c 
c writing extension stack to 'simp/22-cubes/30.cubes2514.adj.ext2'
c opening file to write 'simp/22-cubes/30.cubes2514.adj.ext2'
c closing file 'simp/22-cubes/30.cubes2514.adj.ext2'
c after writing 0 bytes 0.0 MB
c wrote 0 witnesses in 0.00 seconds process time
c 
c --- [ result ] -------------------------------------------------------------
c 
s UNSATISFIABLE
c 
c --- [ run-time profiling ] -------------------------------------------------
c 
c process time taken by individual solving procedures
c (percentage relative to process time for solving)
c 
c         0.00  672.26% parse
c         0.00    0.00% search
c         0.00    0.00% simplify
c   =================================
c         0.00    5.34% solve
c 
c last line shows process time for solving
c (percentage relative to total process time)
c 
c --- [ statistics ] ---------------------------------------------------------
c 
c minimized:                     0         0.00 %  learned literals
c shrunken:                      0         0.00 %  learned literals
c minishrunken:                  0         0.00 %  learned literals
c propagations:                  0         0.00 M  per second
c 
c seconds are measured in process time for solving
c 
c --- [ resources ] ----------------------------------------------------------
c 
c total process time since initialization:         0.00    seconds
c total real time since initialization:            0.02    seconds
c maximum resident set size of process:            2.67    MB
c 
c --- [ shutting down ] ------------------------------------------------------
c 
c exit 20
+ for i in '$(seq 1 100)'
++ sed 's/.$//'
++ rev
++ cut '-d ' -f1
++ rev
++ tail -n 1
++ grep 'c [*]' log/22-cubes/30.cubes2514.adj.simp2
+ vars_remaining=0
+ ((  vars_remaining < 100 - p  ))
+ break
++ cut '-d ' -f3
++ head -n 1 simp/22-cubes/30.cubes2514.adj.simp2
+ numvars=6160
++ cut '-d ' -f4
++ head -n 1 simp/22-cubes/30.cubes2514.adj.simp2
+ numlines=1
+ extlines_total=0
++ seq 1 2
+ for j in '$(seq 1 "$i")'
++ cut '-d ' -f1
++ wc -l simp/22-cubes/30.cubes2514.adj.ext1
+ extlines_j=0
+ extlines_total=0
+ for j in '$(seq 1 "$i")'
++ cut '-d ' -f1
++ wc -l simp/22-cubes/30.cubes2514.adj.ext2
+ extlines_j=0
+ extlines_total=0
+ newlines=1
+ echo 'p cnf 6160 1'
+ tail simp/22-cubes/30.cubes2514.adj.simp2 -n +2
++ seq 1 2
+ for j in '$(seq 1 "$i")'
+ cat simp/22-cubes/30.cubes2514.adj.ext1
+ for j in '$(seq 1 "$i")'
+ cat simp/22-cubes/30.cubes2514.adj.ext2
+ sed -i 's/ 0.*/ 0/' 22-cubes/30.cubes2514.adj.simp
UNSATISFIABLE
